nodes = 46;
edges = 236;
starts = [1, 1, 2, 2, 2, 3, 3, 3, 4, 4, 4, 5, 6, 6, 6, 7, 7, 7, 8, 8, 8, 9, 9, 9, 10, 10, 10, 11, 11, 11, 12, 12, 12, 13, 14, 14, 14, 15, 15, 15, 16, 16, 17, 17, 18, 18, 18, 19, 19, 19, 20, 20, 20, 21, 21, 21, 22, 22, 22, 23, 23, 23, 24, 24, 25, 25, 25, 26, 26, 26, 27, 27, 28, 29, 29, 30, 31, 31, 32, 32, 32, 33, 33, 33, 34, 35, 35, 35, 36, 36, 36, 37, 37, 37, 38, 38, 38, 39, 39, 40, 40, 40, 41, 41, 41, 42, 42, 42, 43, 43, 44, 44, 45, 45, 45, 46, 46, 46, 32, 43, 18, 24, 44, 6, 12, 41, 7, 10, 46, 9, 3, 11, 41, 4, 18, 21, 19, 26, 33, 5, 36, 40, 4, 45, 46, 6, 12, 22, 3, 11, 37, 35, 15, 22, 37, 14, 23, 25, 20, 36, 33, 35, 2, 7, 45, 8, 21, 46, 16, 26, 32, 7, 19, 33, 11, 14, 25, 15, 27, 31, 2, 34, 15, 22, 31, 8, 20, 36, 23, 30, 29, 28, 35, 27, 23, 25, 1, 20, 45, 8, 17, 21, 24, 13, 17, 29, 9, 16, 26, 12, 14, 38, 37, 39, 42, 38, 40, 9, 39, 42, 3, 6, 42, 38, 40, 41, 1, 44, 2, 43, 10, 18, 32, 4, 10, 19];
ends = [32, 43, 18, 24, 44, 6, 12, 41, 7, 10, 46, 9, 3, 11, 41, 4, 18, 21, 19, 26, 33, 5, 36, 40, 4, 45, 46, 6, 12, 22, 3, 11, 37, 35, 15, 22, 37, 14, 23, 25, 20, 36, 33, 35, 2, 7, 45, 8, 21, 46, 16, 26, 32, 7, 19, 33, 11, 14, 25, 15, 27, 31, 2, 34, 15, 22, 31, 8, 20, 36, 23, 30, 29, 28, 35, 27, 23, 25, 1, 20, 45, 8, 17, 21, 24, 13, 17, 29, 9, 16, 26, 12, 14, 38, 37, 39, 42, 38, 40, 9, 39, 42, 3, 6, 42, 38, 40, 41, 1, 44, 2, 43, 10, 18, 32, 4, 10, 19, 1, 1, 2, 2, 2, 3, 3, 3, 4, 4, 4, 5, 6, 6, 6, 7, 7, 7, 8, 8, 8, 9, 9, 9, 10, 10, 10, 11, 11, 11, 12, 12, 12, 13, 14, 14, 14, 15, 15, 15, 16, 16, 17, 17, 18, 18, 18, 19, 19, 19, 20, 20, 20, 21, 21, 21, 22, 22, 22, 23, 23, 23, 24, 24, 25, 25, 25, 26, 26, 26, 27, 27, 28, 29, 29, 30, 31, 31, 32, 32, 32, 33, 33, 33, 34, 35, 35, 35, 36, 36, 36, 37, 37, 37, 38, 38, 38, 39, 39, 40, 40, 40, 41, 41, 41, 42, 42, 42, 43, 43, 44, 44, 45, 45, 45, 46, 46, 46];
weights = [27, 26, 27, 31, 57, 101, 43, 141, 63, 109, 94, 13, 101, 49, 123, 63, 26, 20, 23, 28, 129, 13, 71, 97, 109, 28, 42, 49, 109, 34, 43, 109, 6, 97, 29, 112, 24, 29, 33, 113, 24, 160, 23, 29, 27, 26, 180, 23, 143, 24, 24, 154, 31, 20, 143, 24, 34, 112, 29, 33, 28, 115, 31, 26, 113, 29, 29, 28, 154, 28, 28, 24, 26, 26, 30, 24, 115, 29, 27, 31, 25, 129, 23, 24, 26, 97, 29, 30, 71, 160, 28, 6, 24, 21, 21, 24, 218, 24, 244, 97, 244, 18, 141, 123, 23, 218, 18, 23, 26, 72, 57, 72, 28, 180, 25, 94, 42, 24, 27, 26, 27, 31, 57, 101, 43, 141, 63, 109, 94, 13, 101, 49, 123, 63, 26, 20, 23, 28, 129, 13, 71, 97, 109, 28, 42, 49, 109, 34, 43, 109, 6, 97, 29, 112, 24, 29, 33, 113, 24, 160, 23, 29, 27, 26, 180, 23, 143, 24, 24, 154, 31, 20, 143, 24, 34, 112, 29, 33, 28, 115, 31, 26, 113, 29, 29, 28, 154, 28, 28, 24, 26, 26, 30, 24, 115, 29, 27, 31, 25, 129, 23, 24, 26, 97, 29, 30, 71, 160, 28, 6, 24, 21, 21, 24, 218, 24, 244, 97, 244, 18, 141, 123, 23, 218, 18, 23, 26, 72, 57, 72, 28, 180, 25, 94, 42, 24];
start = 33;
end= 12;
tasks = 1;
task = array2d(1..tasks, 1..nodes, [0, 0, 0, 0, 0, 0, 0, 0, 1, 0, 0, 0, 0, 0, 0, 0, 0, 0, 0, 0, 0, 0, 0, 0, 0, 0, 0, 0, 0, 0, 0, 0, 0, 0, 0, 0, 0, 0, 0, 0, 0, 0, 0, 0, 0, 0]);
